(set-info :smt-lib-version 2.6)
(set-logic UFLRA)
(set-info :source |
Generated by: Geoff Sutcliffe
Generated on: 2026-03-11
Generator: TPTPWorld
Application: Benchmarking automated theorem provers
Time limit: 120.0

These benchmarks are translations from the TPTP Library (Thousands of
Problems for Theorem Provers), see http://www.cs.miami.edu/~tptp/

The TPTP is maintained by Geoff Sutcliffe, and he contributed this
selection of benchmarks to SMT-LIB.  They were exported from the
v9.2.1 realease of TPTP.
|)
(set-info :category "industrial")
(set-info :status "unknown")
; SZS status Success
(declare-sort $$unsorted 0)
(declare-sort |tptp.'S1'| 0)
(declare-sort |tptp.'S2'| 0)
(declare-fun tptp.f4 () |tptp.'S2'|)
(declare-fun tptp.f3 (|tptp.'S2'| Real) Real)
(declare-fun tptp.f5 () Real)
(declare-fun tptp.f1 () |tptp.'S1'|)
(declare-fun tptp.f6 () Real)
(declare-fun tptp.f2 () |tptp.'S1'|)
(assert (not (= tptp.f1 tptp.f2)))
(assert (not (not (= (tptp.f3 tptp.f4 tptp.f5) 0.0))))
(assert (< tptp.f6 tptp.f5))
(assert (< tptp.f5 (* 2.0 tptp.f6)))
(assert (not (= (tptp.f3 tptp.f4 (- tptp.f5 tptp.f6)) 0.0)))
(assert (forall ((A__questionmark_v0 Real)) (exists ((A__questionmark_v_0_1 Real)) (and (= A__questionmark_v_0_1 0.0) (=> (< A__questionmark_v_0_1 A__questionmark_v0) (=> (< A__questionmark_v0 tptp.f6) (< A__questionmark_v_0_1 (tptp.f3 tptp.f4 A__questionmark_v0))))))))
(check-sat)
